(assert (forall ((pkt_0_4_6_0  Int  )(state_group_0_state_0_5_7_0  Int  )(state_group_0_state_1_6_8_0  Int  )) (let ((_n0 999 ))
(let ((_n1 pkt_0_4_6_0 ))
(let ((_n2 (-  _n1 )))
(let ((_n3 (=   _n2   _n0 ) ))
(let ((_n4 false ))
(let ((_n5 true ))
(let ((_n6 state_group_0_state_1_6_8_0 ))
(let ((_n7 (ite (=  _n2  999)  _n6   (ite  _n4  1 0)  ) ))
(let ((_n8 (=   _n7   (ite  _n5  1 0) ) ))
(let ((_n9 (ite (=  _n2  999)  _n8   _n4  ) ))
(let ((_n10 (and   _n9   _n3 ) ))
(let ((_n11 (not  _n10 ) ))
(let ((_n13 state_group_0_state_0_5_7_0 ))
(let ((_n14 (+   _n13   (ite  _n5  1 0) ) ))
(let ((_n15 (ite (=  _n6  0)  _n14   _n13  ) ))
(let ((_n16 (ite (=  _n2  999)  (ite  _n4  1 0)   _n6  ) ))
(let ((_n17 (=   _n16   (ite  _n4  1 0) ) ))
(let ((_n18 (ite (=  _n2  999)  _n4   _n17  ) ))
(let ((_n19 (not  _n18 ) ))
(let ((_n20 (or   _n19   _n3 ) ))
(let ((_n21 (ite  _n20   (ite  _n4  1 0)   _n13  ) ))
(let ((_n22 998 ))
(let ((_n23 (<   _n22   _n21 ) ))
(let ((_n24 (ite  _n20   _n4   _n23  ) ))
(let ((_n25 (or   _n24   _n20 ) ))
(let ((_n26 (not  _n25 ) ))
(let ((_n27 (+   _n13   (ite  _n26  1 0) ) ))
(let ((_n28 (not  _n24 ) ))
(let ((_n29 (or   _n28   _n20 ) ))
(let ((_n30 (not  _n29 ) ))
(let ((_n31 (+   _n13   (ite  _n30  1 0) ) ))
(let ((_n32 (ite (=  (ite  _n24  1 0)  1)  _n31   _n27  ) ))
(let ((_n33 (ite (=  (ite  _n18  1 0)  1)  _n32   _n13  ) ))
(let ((_n34 (not  _n3 ) ))
(let ((_n35 (or   _n9   _n34 ) ))
(let ((_n36 (ite  _n35   (ite  _n4  1 0)   _n1  ) ))
(let ((_n37 (+   _n36   _n36 ) ))
(let ((_n38 (ite  _n35   (ite  _n4  1 0)   _n37  ) ))
(let ((_n39 (+   _n13   _n38 ) ))
(let ((_n40 (ite (=  (ite  _n9  1 0)  1)  _n13   _n39  ) ))
(let ((_n41 (ite (=  (ite  _n3  1 0)  1)  _n40   _n33  ) ))
(let ((_n42 (=   _n41   _n15 ) ))
(let ((_n44 (ite (=  _n13  999)  (ite  _n5  1 0)   _n6  ) ))
(let ((_n45 (ite (=  _n6  0)  _n44   _n6  ) ))
(let ((_n46 (+   _n6   (ite  _n30  1 0) ) ))
(let ((_n47 (ite (=  (ite  _n24  1 0)  1)  _n46   _n6  ) ))
(let ((_n48 (ite (=  (ite  _n18  1 0)  1)  _n47   _n6  ) ))
(let ((_n49 (+   _n6   _n36 ) ))
(let ((_n50 (ite (=  (ite  _n9  1 0)  1)  _n6   _n49  ) ))
(let ((_n51 (ite (=  (ite  _n3  1 0)  1)  _n50   _n48  ) ))
(let ((_n52 (=   _n51   _n45 ) ))
(let ((_n54 (ite (=  _n1  0)  _n1   (ite  _n4  1 0)  ) ))
(let ((_n55 (ite (=  _n1  0)  _n54   _n1  ) ))
(let ((_n56 (=   _n55   _n1 ) ))
(implies  (and (and (>= state_group_0_state_1_6_8_0 0) (< state_group_0_state_1_6_8_0 1024 ))  (and (and (>= state_group_0_state_0_5_7_0 0) (< state_group_0_state_0_5_7_0 1024 ))  (and (>= pkt_0_4_6_0 0) (< pkt_0_4_6_0 1024 )) ) )   (and  _n11  _n42  _n52  _n56 )  )))))))))))))))))))))))))))))))))))))))))))))))))))))))))
(check-sat)
(get-model)
(exit)